param set_len = 46;
param target_sum = 12376157089;
param values := [1] 463741646 [2] 82451632 [3] 786326416 [4] 598163089 [5] 819761052 [6] 19908426 [7] 116786958 [8] 536539774 [9] 404383365 [10] 685342461 [11] 255235625 [12] 664119051 [13] 862179053 [14] 988134624 [15] 279722100 [16] 788949996 [17] 846218132 [18] 1009472063 [19] 1034133304 [20] 145362681 [21] 250297203 [22] 756324974 [23] 923110304 [24] 391808657 [25] 861488971 [26] 700782409 [27] 633730785 [28] 685337858 [29] 749189617 [30] 679532462 [31] 806751572 [32] 861862017 [33] 743300651 [34] 3723277 [35] 572461693 [36] 273816084 [37] 435495918 [38] 483234029 [39] 407196254 [40] 214903166 [41] 786238620 [42] 759249029 [43] 79527775 [44] 767851805 [45] 322792716 [46] 595103732 ;
